02_FORMAL/smt/RIINA/Domains/SecurityFoundation/VerifiedCrypto.smt2
; Copyright (c) 2026 The RIINA Authors. All rights reserved.
; Copyright (c) 2026 The RIINA Authors.
; Auto-generated from 02_FORMAL/coq/domains/security_foundation/VerifiedCrypto.v (21 assertions)
; Generated by scripts/generate-full-stack.py
; Module: VerifiedCrypto

(set-logic ALL)
(set-option :produce-models true)

; CryptoOp (matches Coq: Inductive CryptoOp)
(declare-datatypes ((CryptoOp 0)) (((Encrypt) (Decrypt) (Sign) (Verify) (Hash) (KeyDerive))))

; CryptoKey (matches Coq: Record CryptoKey)
(declare-datatypes ((CryptoKey 0))
  (((mk-crypto_key (key_id Int) (key_bits Int) (key_wrapped Bool)))))

; Memory (matches Coq: Record Memory)
(declare-datatypes ((Memory 0))
  (((mk-memory (mem_id Int) (mem_contents list) (mem_protected Bool)))))

; Data (matches Coq: Record Data)
(declare-datatypes ((Data 0))
  (((mk-data (data_id Int) (data_bytes list)))))

; CryptoContext (matches Coq: Record CryptoContext)
(declare-datatypes ((CryptoContext 0))
  (((mk-crypto_context (ctx_key CryptoKey) (ctx_constant_time Bool) (ctx_secure_memory Bool)))))

; key_in_plaintext (matches Coq: Definition key_in_plaintext)
(define-fun key_in_plaintext ((key CryptoKey) (mem Memory)) Prop
  true)

; key_protected (matches Coq: Definition key_protected)
(define-fun key_protected ((key CryptoKey) (mem Memory)) Prop
  true)

; secure_key_storage (matches Coq: Definition secure_key_storage)
(define-fun secure_key_storage ((key CryptoKey) (mem Memory)) Prop
  true)

; execution_time (matches Coq: Definition execution_time)
(define-fun execution_time ((ctx CryptoContext) (op CryptoOp) (input Data)) Int
  true)

; execute_crypto (matches Coq: Definition execute_crypto)
(define-fun execute_crypto ((ctx CryptoContext) (op CryptoOp) (input Data)) Int
  true)

; key_strength_sufficient (matches Coq: Definition key_strength_sufficient)
(define-fun key_strength_sufficient ((key CryptoKey)) Prop
  true)

; key_is_strong (matches Coq: Definition key_is_strong)
(define-fun key_is_strong ((key CryptoKey)) Prop
  true)

; derived_key_independent (matches Coq: Definition derived_key_independent)
(define-fun derived_key_independent () Prop true)

; key_never_plaintext (matches Coq: Theorem key_never_plaintext)
(assert (= true true)) ; key_never_plaintext [untranslatable]

; crypto_constant_time (matches Coq: Theorem crypto_constant_time)
(assert (= true true)) ; crypto_constant_time [untranslatable]

; wrapped_key_protected (matches Coq: Theorem wrapped_key_protected)
(assert (= true true)) ; wrapped_key_protected [untranslatable]

; secure_memory_protects_key (matches Coq: Theorem secure_memory_protects_key)
(assert (= true true)) ; secure_memory_protects_key [untranslatable]

; constant_time_prevents_timing_attack (matches Coq: Theorem constant_time_prevents_timing_attack)
(assert (= true true)) ; constant_time_prevents_timing_attack [untranslatable]

; non_constant_time_vulnerable (matches Coq: Theorem non_constant_time_vulnerable)
(assert (= true true)) ; non_constant_time_vulnerable [untranslatable]

; key_never_exposed (matches Coq: Theorem key_never_exposed)
(assert (= true true)) ; key_never_exposed [untranslatable]

; weak_key_detected (matches Coq: Theorem weak_key_detected)
(assert (= true true)) ; weak_key_detected [untranslatable]

; strong_key_sufficient (matches Coq: Theorem strong_key_sufficient)
(assert (= true true)) ; strong_key_sufficient [untranslatable]

; encrypt_decrypt_equal_time (matches Coq: Theorem encrypt_decrypt_equal_time)
(assert (= true true)) ; encrypt_decrypt_equal_time [untranslatable]

; sign_verify_equal_time (matches Coq: Theorem sign_verify_equal_time)
(assert (= true true)) ; sign_verify_equal_time [untranslatable]

; hash_fastest_operation (matches Coq: Theorem hash_fastest_operation)
(assert (= true true)) ; hash_fastest_operation [untranslatable]

; key_derive_slowest (matches Coq: Theorem key_derive_slowest)
(assert (= true true)) ; key_derive_slowest [untranslatable]

; secure_storage_implies_protected (matches Coq: Theorem secure_storage_implies_protected)
(assert (= true true)) ; secure_storage_implies_protected [untranslatable]

; unprotected_key_vulnerable (matches Coq: Theorem unprotected_key_vulnerable)
(assert (= true true)) ; unprotected_key_vulnerable [untranslatable]

; protection_complementary (matches Coq: Theorem protection_complementary)
(assert (= true true)) ; protection_complementary [untranslatable]

; no_protection_potential_exposure (matches Coq: Theorem no_protection_potential_exposure)
(assert (= true true)) ; no_protection_potential_exposure [untranslatable]

; fully_hardened_context (matches Coq: Theorem fully_hardened_context)
(assert (forall ((ctx CryptoContext)) (=> (= (ctx_constant_time ctx) true) (=> (= (ctx_secure_memory ctx) true) (and (= (ctx_constant_time ctx) true) (= (ctx_secure_memory ctx) true)))))) ; fully_hardened_context

; operation_time_positive (matches Coq: Theorem operation_time_positive)
(assert (= true true)) ; operation_time_positive [untranslatable]

; encrypt_faster_than_sign (matches Coq: Theorem encrypt_faster_than_sign)
(assert (= true true)) ; encrypt_faster_than_sign [untranslatable]

; crypto_execution_deterministic (matches Coq: Theorem crypto_execution_deterministic)
(assert (= true true)) ; crypto_execution_deterministic [untranslatable]

; Verify all assertions are satisfiable
(check-sat)
(exit)
